************************************************************************
file with basedata            : J12057_.BAS
initial value random generator: 1951913658
************************************************************************
projects                      :  1
jobs (incl. supersource/sink ):  122
horizon                       :  692
RESOURCES
  - renewable                 :  4   R
  - nonrenewable              :  0   N
  - doubly constrained        :  0   D
************************************************************************
PROJECT INFORMATION:
pronr.  #jobs rel.date duedate tardcost  MPM-Time
    1    120      0      120       53      120
************************************************************************
PRECEDENCE RELATIONS:
jobnr.    #modes  #successors   successors
   1        1          3           2   3   4
   2        1          3           5  32  52
   3        1          3           8  23 100
   4        1          3          17  24  28
   5        1          3           6   7  18
   6        1          3          10  14  45
   7        1          2          30  73
   8        1          3           9  13  27
   9        1          3          11  15  35
  10        1          3          12  16  22
  11        1          3          20  58 106
  12        1          3          21  40  66
  13        1          3          16  34  47
  14        1          2          25  27
  15        1          3          42  49  59
  16        1          3          19  38  62
  17        1          2          33  58
  18        1          3          39  90  93
  19        1          3          46  61  83
  20        1          3          24  32  37
  21        1          3          26  31  70
  22        1          1          30
  23        1          3          27  39  40
  24        1          2          44 101
  25        1          2          78 103
  26        1          1          34
  27        1          3          29  48  55
  28        1          3          37  63 100
  29        1          2          68  71
  30        1          1          35
  31        1          3          41  65  88
  32        1          2          53 107
  33        1          3          36  45  72
  34        1          3          64  74  80
  35        1          3          38  51  82
  36        1          1          43
  37        1          3          50  77 116
  38        1          2          46  77
  39        1          3          62  74  84
  40        1          2          72  92
  41        1          3          48  78  95
  42        1          2          80  84
  43        1          3          54  57  79
  44        1          2          60  70
  45        1          2          49  68
  46        1          1          63
  47        1          3          48  58  84
  48        1          1          97
  49        1          3          55  85 116
  50        1          3          75  87  92
  51        1          3          56  67  96
  52        1          3          65  86 113
  53        1          3          56  86 102
  54        1          3          67  73  81
  55        1          3          65  75  89
  56        1          2         101 115
  57        1          2          68  69
  58        1          3          60  70  77
  59        1          3          63  74  99
  60        1          1          71
  61        1          2          72  81
  62        1          3          69  94 103
  63        1          2          76  91
  64        1          3          69  75  89
  65        1          1          80
  66        1          2          71  81
  67        1          1          76
  68        1          3          76  82  93
  69        1          3          73  87  98
  70        1          2          79  96
  71        1          3          78  83  92
  72        1          3          91  93  94
  73        1          1         117
  74        1          1         103
  75        1          3          83  94 111
  76        1          1          88
  77        1          3          85  87 105
  78        1          2          79  91
  79        1          3          82  85 119
  80        1          2          98 114
  81        1          2          98 112
  82        1          1         111
  83        1          3          88  95 102
  84        1          1         102
  85        1          1          86
  86        1          1          90
  87        1          2          99 101
  88        1          3          90  97 120
  89        1          1         106
  90        1          1         104
  91        1          2         107 108
  92        1          2         104 115
  93        1          2          99 114
  94        1          3          95  96 105
  95        1          1         118
  96        1          2          97 108
  97        1          1         104
  98        1          1         106
  99        1          1         109
 100        1          3         107 110 113
 101        1          1         111
 102        1          2         105 109
 103        1          1         108
 104        1          1         121
 105        1          2         110 112
 106        1          1         118
 107        1          2         115 116
 108        1          3         109 113 121
 109        1          1         110
 110        1          1         117
 111        1          1         112
 112        1          2         114 120
 113        1          1         119
 114        1          1         121
 115        1          1         117
 116        1          1         119
 117        1          1         118
 118        1          1         120
 119        1          1         122
 120        1          1         122
 121        1          1         122
 122        1          0        
************************************************************************
REQUESTS/DURATIONS:
jobnr. mode duration  R 1  R 2  R 3  R 4
------------------------------------------------------------------------
  1      1     0       0    0    0    0
  2      1     8       6    3   10    9
  3      1     7       7    6    2    8
  4      1     9       3    3    4    9
  5      1     8      10    9    2   10
  6      1     1       9    1    8    7
  7      1     9       1    5   10    7
  8      1     4       4    8    2    4
  9      1     2       3    6    2    1
 10      1    10      10    1    6    3
 11      1     8       4    9   10    5
 12      1     8       2    6    5    9
 13      1     2      10    2    4    4
 14      1     8       2    6    1    5
 15      1     6       3    8    7    8
 16      1     1       7    9    8    4
 17      1     6       9    4    4    9
 18      1     2       7    3   10    2
 19      1     4       9    4    4    2
 20      1     7       5    4    4    7
 21      1     7       6    3    6    4
 22      1     6      10    9    4    5
 23      1     2       7    5    3    6
 24      1    10       7    3    6    6
 25      1     3       4    7    2    2
 26      1     7       6    2    9    8
 27      1    10       2    5    6    2
 28      1     2       9   10    2    6
 29      1     1       9    8   10    5
 30      1     3       7    8    8   10
 31      1     2       3    2    6    6
 32      1     8       7    8    9    2
 33      1     2       6   10    6    2
 34      1     4       5    4    4    7
 35      1    10       8    7    1    8
 36      1     2       6    3    7   10
 37      1     9       4    1    6    6
 38      1     3       5   10    6    6
 39      1     9       8    8    9    4
 40      1     4       2    7    1    7
 41      1     7       2    1    3    9
 42      1     5       7    1    2    9
 43      1    10       8   10    8   10
 44      1     9       8    3    2    8
 45      1     7       6    3    1   10
 46      1     6       1    4    8    2
 47      1     5       2    5   10   10
 48      1     7       4    3    5    7
 49      1     4       5    4    1    1
 50      1    10       2    4    7    3
 51      1    10      10    2    9    8
 52      1     7       4    3    8    5
 53      1     7       4    8    6    8
 54      1     5       4    2    7    8
 55      1     6       9    7    6    2
 56      1     3      10    3    2    3
 57      1     6       6    6   10    3
 58      1     9       7    2    7    9
 59      1    10       3    8   10    4
 60      1     1       9    6    8    2
 61      1     1      10    9   10    4
 62      1     6       8   10    8    8
 63      1     4       3    5    1    6
 64      1    10       7    2   10    6
 65      1     5       4    4    3    4
 66      1     1       4   10    6    3
 67      1     2      10    2    2    6
 68      1     6       1    4    4    9
 69      1     4       7    1    1    6
 70      1     7       1   10    2    9
 71      1     3       1    9    9    5
 72      1     3       5    8    2    4
 73      1    10      10    7    8    1
 74      1     9       4    3    5    7
 75      1     8       1    1    4    5
 76      1    10       2    8   10    2
 77      1    10       5    5    1    3
 78      1     1       4   10    5   10
 79      1     6       4    9    4    6
 80      1     3       4    5    2    1
 81      1     8       4    7    9    4
 82      1     4       9    8    7    7
 83      1     2       3    1    9    7
 84      1     8       8    5    8    6
 85      1    10       5    4   10    2
 86      1     2       2    8    7   10
 87      1     4       5    2    4    2
 88      1     5       8    4    9    7
 89      1     9       1    9    2    9
 90      1     8       1   10    5    3
 91      1     9       5    8    1    3
 92      1     9       2    8   10    4
 93      1     4       4    2    1    5
 94      1     1       1    9    5    3
 95      1     8      10    9    1   10
 96      1     5       8    5    3    9
 97      1     5       8    7   10    6
 98      1     2       6    1    9    9
 99      1     5       3    5    5    1
100      1    10      10   10    8    1
101      1     4       8    7    6    4
102      1     1       6    2    4    5
103      1     2       6    2   10    9
104      1    10       4    5    7   10
105      1     2       4    8    6    4
106      1     5       9    5   10   10
107      1     1       2    8   10    8
108      1     8       8    1    5    6
109      1     9       5    6    4    4
110      1    10       1    2   10    1
111      1     8      10   10    4    8
112      1     2       4    3    5    8
113      1     2       6    5    6    8
114      1     7       7    5    5    2
115      1     6       4    3    4    8
116      1     9       2    1    5    4
117      1     4       9    6    3    9
118      1     6       3    6    2    6
119      1     6       8    4    2    9
120      1     6       6    4    4    4
121      1     9       7    3    8    5
122      1     0       0    0    0    0
************************************************************************
RESOURCEAVAILABILITIES:
  R 1  R 2  R 3  R 4
   23   22   24   22
************************************************************************
